c description: Graph pigeonhole principle formula on fast_gnp_random_graph(20,10,0.5)
c generator: CNFgen (0.9.0)
c copyright: (C) 2012-2020 Massimo Lauria <massimo.lauria@uniroma1.it>
c url: https://massimolauria.net/cnfgen
c
p cnf 110 604
1 2 3 4 5 6 0
7 8 9 10 11 0
12 13 14 15 16 0
17 18 19 20 21 0
22 23 24 25 26 0
27 28 29 30 31 32 33 0
34 35 36 37 38 0
39 40 41 42 0
43 44 45 46 47 48 0
49 50 51 52 53 54 0
55 56 57 58 59 60 61 0
62 63 64 65 66 0
67 68 69 70 71 0
72 73 74 75 76 77 78 79 0
80 81 82 0
83 84 85 86 87 0
88 89 90 91 92 0
93 94 95 96 97 98 99 100 0
101 102 103 104 0
105 106 107 108 109 110 0
-1 -17 0
-1 -22 0
-1 -27 0
-1 -34 0
-1 -39 0
-1 -49 0
-1 -55 0
-1 -67 0
-1 -72 0
-1 -83 0
-1 -93 0
-1 -105 0
-17 -22 0
-17 -27 0
-17 -34 0
-17 -39 0
-17 -49 0
-17 -55 0
-17 -67 0
-17 -72 0
-17 -83 0
-17 -93 0
-17 -105 0
-22 -27 0
-22 -34 0
-22 -39 0
-22 -49 0
-22 -55 0
-22 -67 0
-22 -72 0
-22 -83 0
-22 -93 0
-22 -105 0
-27 -34 0
-27 -39 0
-27 -49 0
-27 -55 0
-27 -67 0
-27 -72 0
-27 -83 0
-27 -93 0
-27 -105 0
-34 -39 0
-34 -49 0
-34 -55 0
-34 -67 0
-34 -72 0
-34 -83 0
-34 -93 0
-34 -105 0
-39 -49 0
-39 -55 0
-39 -67 0
-39 -72 0
-39 -83 0
-39 -93 0
-39 -105 0
-49 -55 0
-49 -67 0
-49 -72 0
-49 -83 0
-49 -93 0
-49 -105 0
-55 -67 0
-55 -72 0
-55 -83 0
-55 -93 0
-55 -105 0
-67 -72 0
-67 -83 0
-67 -93 0
-67 -105 0
-72 -83 0
-72 -93 0
-72 -105 0
-83 -93 0
-83 -105 0
-93 -105 0
-12 -23 0
-12 -28 0
-12 -40 0
-12 -50 0
-12 -56 0
-12 -73 0
-12 -80 0
-12 -88 0
-12 -101 0
-12 -106 0
-23 -28 0
-23 -40 0
-23 -50 0
-23 -56 0
-23 -73 0
-23 -80 0
-23 -88 0
-23 -101 0
-23 -106 0
-28 -40 0
-28 -50 0
-28 -56 0
-28 -73 0
-28 -80 0
-28 -88 0
-28 -101 0
-28 -106 0
-40 -50 0
-40 -56 0
-40 -73 0
-40 -80 0
-40 -88 0
-40 -101 0
-40 -106 0
-50 -56 0
-50 -73 0
-50 -80 0
-50 -88 0
-50 -101 0
-50 -106 0
-56 -73 0
-56 -80 0
-56 -88 0
-56 -101 0
-56 -106 0
-73 -80 0
-73 -88 0
-73 -101 0
-73 -106 0
-80 -88 0
-80 -101 0
-80 -106 0
-88 -101 0
-88 -106 0
-101 -106 0
-2 -24 0
-2 -35 0
-2 -41 0
-2 -43 0
-2 -51 0
-2 -57 0
-2 -84 0
-2 -94 0
-24 -35 0
-24 -41 0
-24 -43 0
-24 -51 0
-24 -57 0
-24 -84 0
-24 -94 0
-35 -41 0
-35 -43 0
-35 -51 0
-35 -57 0
-35 -84 0
-35 -94 0
-41 -43 0
-41 -51 0
-41 -57 0
-41 -84 0
-41 -94 0
-43 -51 0
-43 -57 0
-43 -84 0
-43 -94 0
-51 -57 0
-51 -84 0
-51 -94 0
-57 -84 0
-57 -94 0
-84 -94 0
-3 -13 0
-3 -18 0
-3 -29 0
-3 -44 0
-3 -52 0
-3 -68 0
-3 -74 0
-3 -85 0
-3 -95 0
-3 -107 0
-13 -18 0
-13 -29 0
-13 -44 0
-13 -52 0
-13 -68 0
-13 -74 0
-13 -85 0
-13 -95 0
-13 -107 0
-18 -29 0
-18 -44 0
-18 -52 0
-18 -68 0
-18 -74 0
-18 -85 0
-18 -95 0
-18 -107 0
-29 -44 0
-29 -52 0
-29 -68 0
-29 -74 0
-29 -85 0
-29 -95 0
-29 -107 0
-44 -52 0
-44 -68 0
-44 -74 0
-44 -85 0
-44 -95 0
-44 -107 0
-52 -68 0
-52 -74 0
-52 -85 0
-52 -95 0
-52 -107 0
-68 -74 0
-68 -85 0
-68 -95 0
-68 -107 0
-74 -85 0
-74 -95 0
-74 -107 0
-85 -95 0
-85 -107 0
-95 -107 0
-7 -19 0
-7 -36 0
-7 -45 0
-7 -53 0
-7 -62 0
-7 -75 0
-7 -86 0
-7 -89 0
-7 -96 0
-19 -36 0
-19 -45 0
-19 -53 0
-19 -62 0
-19 -75 0
-19 -86 0
-19 -89 0
-19 -96 0
-36 -45 0
-36 -53 0
-36 -62 0
-36 -75 0
-36 -86 0
-36 -89 0
-36 -96 0
-45 -53 0
-45 -62 0
-45 -75 0
-45 -86 0
-45 -89 0
-45 -96 0
-53 -62 0
-53 -75 0
-53 -86 0
-53 -89 0
-53 -96 0
-62 -75 0
-62 -86 0
-62 -89 0
-62 -96 0
-75 -86 0
-75 -89 0
-75 -96 0
-86 -89 0
-86 -96 0
-89 -96 0
-8 -14 0
-8 -20 0
-8 -25 0
-8 -30 0
-8 -37 0
-8 -42 0
-8 -46 0
-8 -58 0
-8 -63 0
-8 -69 0
-8 -76 0
-8 -81 0
-8 -87 0
-8 -97 0
-8 -102 0
-8 -108 0
-14 -20 0
-14 -25 0
-14 -30 0
-14 -37 0
-14 -42 0
-14 -46 0
-14 -58 0
-14 -63 0
-14 -69 0
-14 -76 0
-14 -81 0
-14 -87 0
-14 -97 0
-14 -102 0
-14 -108 0
-20 -25 0
-20 -30 0
-20 -37 0
-20 -42 0
-20 -46 0
-20 -58 0
-20 -63 0
-20 -69 0
-20 -76 0
-20 -81 0
-20 -87 0
-20 -97 0
-20 -102 0
-20 -108 0
-25 -30 0
-25 -37 0
-25 -42 0
-25 -46 0
-25 -58 0
-25 -63 0
-25 -69 0
-25 -76 0
-25 -81 0
-25 -87 0
-25 -97 0
-25 -102 0
-25 -108 0
-30 -37 0
-30 -42 0
-30 -46 0
-30 -58 0
-30 -63 0
-30 -69 0
-30 -76 0
-30 -81 0
-30 -87 0
-30 -97 0
-30 -102 0
-30 -108 0
-37 -42 0
-37 -46 0
-37 -58 0
-37 -63 0
-37 -69 0
-37 -76 0
-37 -81 0
-37 -87 0
-37 -97 0
-37 -102 0
-37 -108 0
-42 -46 0
-42 -58 0
-42 -63 0
-42 -69 0
-42 -76 0
-42 -81 0
-42 -87 0
-42 -97 0
-42 -102 0
-42 -108 0
-46 -58 0
-46 -63 0
-46 -69 0
-46 -76 0
-46 -81 0
-46 -87 0
-46 -97 0
-46 -102 0
-46 -108 0
-58 -63 0
-58 -69 0
-58 -76 0
-58 -81 0
-58 -87 0
-58 -97 0
-58 -102 0
-58 -108 0
-63 -69 0
-63 -76 0
-63 -81 0
-63 -87 0
-63 -97 0
-63 -102 0
-63 -108 0
-69 -76 0
-69 -81 0
-69 -87 0
-69 -97 0
-69 -102 0
-69 -108 0
-76 -81 0
-76 -87 0
-76 -97 0
-76 -102 0
-76 -108 0
-81 -87 0
-81 -97 0
-81 -102 0
-81 -108 0
-87 -97 0
-87 -102 0
-87 -108 0
-97 -102 0
-97 -108 0
-102 -108 0
-4 -9 0
-4 -21 0
-4 -31 0
-4 -54 0
-4 -59 0
-4 -77 0
-4 -90 0
-9 -21 0
-9 -31 0
-9 -54 0
-9 -59 0
-9 -77 0
-9 -90 0
-21 -31 0
-21 -54 0
-21 -59 0
-21 -77 0
-21 -90 0
-31 -54 0
-31 -59 0
-31 -77 0
-31 -90 0
-54 -59 0
-54 -77 0
-54 -90 0
-59 -77 0
-59 -90 0
-77 -90 0
-5 -47 0
-5 -60 0
-5 -64 0
-5 -70 0
-5 -78 0
-5 -82 0
-5 -98 0
-5 -103 0
-5 -109 0
-47 -60 0
-47 -64 0
-47 -70 0
-47 -78 0
-47 -82 0
-47 -98 0
-47 -103 0
-47 -109 0
-60 -64 0
-60 -70 0
-60 -78 0
-60 -82 0
-60 -98 0
-60 -103 0
-60 -109 0
-64 -70 0
-64 -78 0
-64 -82 0
-64 -98 0
-64 -103 0
-64 -109 0
-70 -78 0
-70 -82 0
-70 -98 0
-70 -103 0
-70 -109 0
-78 -82 0
-78 -98 0
-78 -103 0
-78 -109 0
-82 -98 0
-82 -103 0
-82 -109 0
-98 -103 0
-98 -109 0
-103 -109 0
-10 -15 0
-10 -32 0
-10 -48 0
-10 -65 0
-10 -91 0
-10 -99 0
-10 -104 0
-15 -32 0
-15 -48 0
-15 -65 0
-15 -91 0
-15 -99 0
-15 -104 0
-32 -48 0
-32 -65 0
-32 -91 0
-32 -99 0
-32 -104 0
-48 -65 0
-48 -91 0
-48 -99 0
-48 -104 0
-65 -91 0
-65 -99 0
-65 -104 0
-91 -99 0
-91 -104 0
-99 -104 0
-6 -11 0
-6 -16 0
-6 -26 0
-6 -33 0
-6 -38 0
-6 -61 0
-6 -66 0
-6 -71 0
-6 -79 0
-6 -92 0
-6 -100 0
-6 -110 0
-11 -16 0
-11 -26 0
-11 -33 0
-11 -38 0
-11 -61 0
-11 -66 0
-11 -71 0
-11 -79 0
-11 -92 0
-11 -100 0
-11 -110 0
-16 -26 0
-16 -33 0
-16 -38 0
-16 -61 0
-16 -66 0
-16 -71 0
-16 -79 0
-16 -92 0
-16 -100 0
-16 -110 0
-26 -33 0
-26 -38 0
-26 -61 0
-26 -66 0
-26 -71 0
-26 -79 0
-26 -92 0
-26 -100 0
-26 -110 0
-33 -38 0
-33 -61 0
-33 -66 0
-33 -71 0
-33 -79 0
-33 -92 0
-33 -100 0
-33 -110 0
-38 -61 0
-38 -66 0
-38 -71 0
-38 -79 0
-38 -92 0
-38 -100 0
-38 -110 0
-61 -66 0
-61 -71 0
-61 -79 0
-61 -92 0
-61 -100 0
-61 -110 0
-66 -71 0
-66 -79 0
-66 -92 0
-66 -100 0
-66 -110 0
-71 -79 0
-71 -92 0
-71 -100 0
-71 -110 0
-79 -92 0
-79 -100 0
-79 -110 0
-92 -100 0
-92 -110 0
-100 -110 0